c 129_4_checker.cnf
c
c field = 129
c formula set type = 4_checker
c
p cnf 5 80
248 
250 
252 
254 
-246 
249 
251 
253 
255 
-247 
248 
250 
252 
254 
-258 
249 
251 
253 
255 
-259 
250 
252 
254 
258 
-248 
251 
253 
255 
259 
-249 
250 
252 
254 
258 
-260 
251 
253 
255 
259 
-261 
252 
254 
258 
260 
-250 
253 
255 
259 
261 
-251 
252 
254 
258 
260 
-262 
253 
255 
259 
261 
-263 
254 
258 
260 
262 
-252 
255 
259 
261 
263 
-253 
254 
258 
260 
262 
-264 
255 
259 
261 
263 
-265 
258 
260 
262 
264 
-254 
259 
261 
263 
265 
-255 
258 
260 
262 
264 
-266 
259 
261 
263 
265 
-267 
136 
166 
196 
226 
-106 
137 
167 
197 
227 
-107 
136 
166 
196 
226 
-286 
137 
167 
197 
227 
-287 
166 
196 
226 
286 
-136 
167 
197 
227 
287 
-137 
166 
196 
226 
286 
-316 
167 
197 
227 
287 
-317 
196 
226 
286 
316 
-166 
197 
227 
287 
317 
-167 
196 
226 
286 
316 
-346 
197 
227 
287 
317 
-347 
226 
286 
316 
346 
-196 
227 
287 
317 
347 
-197 
226 
286 
316 
346 
-376 
227 
287 
317 
347 
-377 
286 
316 
346 
376 
-226 
287 
317 
347 
377 
-227 
286 
316 
346 
376 
-406 
287 
317 
347 
377 
-407 
128 
160 
192 
224 
-96 
129 
161 
193 
225 
-97 
128 
160 
192 
224 
-288 
129 
161 
193 
225 
-289 
160 
192 
224 
288 
-128 
161 
193 
225 
289 
-129 
160 
192 
224 
288 
-320 
161 
193 
225 
289 
-321 
192 
224 
288 
320 
-160 
193 
225 
289 
321 
-161 
192 
224 
288 
320 
-352 
193 
225 
289 
321 
-353 
224 
288 
320 
352 
-192 
225 
289 
321 
353 
-193 
224 
288 
320 
352 
-384 
225 
289 
321 
353 
-385 
288 
320 
352 
384 
-224 
289 
321 
353 
385 
-225 
288 
320 
352 
384 
-416 
289 
321 
353 
385 
-417 
144 
172 
200 
228 
-116 
145 
173 
201 
229 
-117 
144 
172 
200 
228 
-284 
145 
173 
201 
229 
-285 
172 
200 
228 
284 
-144 
173 
201 
229 
285 
-145 
172 
200 
228 
284 
-312 
173 
201 
229 
285 
-313 
200 
228 
284 
312 
-172 
201 
229 
285 
313 
-173 
200 
228 
284 
312 
-340 
201 
229 
285 
313 
-341 
228 
284 
312 
340 
-200 
229 
285 
313 
341 
-201 
228 
284 
312 
340 
-368 
229 
285 
313 
341 
-369 
284 
312 
340 
368 
-228 
285 
313 
341 
369 
-229 
284 
312 
340 
368 
-396 
285 
313 
341 
369 
-397 
